sat
(:added-eqs                       4154
 :arith-eq-adapter                413
 :arith-bound-propagations-lp     259
 :arith-branch                    2
 :arith-conflicts                 340
 :arith-diseq                     836
 :arith-fixed-eqs                 367
 :arith-gcd-calls                 29
 :arith-grobner-calls             40
 :arith-grobner-conflicts         12
 :arith-horner-calls              8
 :arith-horner-conflicts          1
 :arith-horner-cross-nested-forms 2950
 :arith-lower                     1320
 :arith-make-feasible             808
 :arith-max-columns               1804
 :arith-max-rows                  812
 :arith-nla-add-bounds            10
 :arith-nla-lemmas                250
 :arith-nla-propagate-bounds      28
 :arith-nla-propagate-eq          3309
 :arith-nra-calls                 3
 :arith-offset-eqs                685
 :arith-patches                   29
 :arith-patches-success           27
 :arith-upper                     1414
 :binary-propagations             8543
 :card2bv-rewrites                1
 :conflicts                       75
 :decisions                       14849
 :del-clause                      221
 :elim-unconstrained              15
 :final-checks                    71
 :max-memory                      35.28
 :memory                          20.27
 :minimized-lits                  90
 :mk-bool-var                     2705
 :mk-clause                       1099
 :mk-clause-binary                26122
 :num-allocs                      135861692
 :num-checks                      1
 :propagations                    10293
 :rlimit-count                    615205
 :time                            0.32
 :total-time                      0.33)
